c Random generated cnf formula, satisfiable: false
p cnf 10 50
3 -6 8 0
1 -8 6 0
3 2 -4 0
9 2 4 0
4 -5 -2 0
2 8 10 0
-4 9 6 0
-7 -1 8 0
-1 -4 -10 0
10 -7 -8 0
5 7 -10 0
-7 1 9 0
-2 10 -1 0
-6 -2 9 0
-5 7 -10 0
6 -5 4 0
3 9 4 0
-3 -4 -1 0
7 -6 -2 0
9 8 -5 0
1 6 10 0
-10 -4 -3 0
9 -2 -3 0
5 8 -6 0
1 5 -6 0
-6 -2 -7 0
6 -1 -5 0
-7 -10 -9 0
-4 8 3 0
-5 7 -4 0
-10 9 -2 0
3 5 -7 0
-10 -4 6 0
10 -6 -1 0
-6 5 -3 0
-5 4 -2 0
-4 -2 10 0
-8 4 7 0
-8 -4 -5 0
-10 -4 1 0
1 7 4 0
2 -4 -10 0
3 5 1 0
3 -2 7 0
-7 8 6 0
-3 4 -2 0
5 1 -8 0
3 6 -1 0
9 1 4 0
6 -5 10 0
